100
32
14
21
7
18
3
19
16
18
4
4
19
19
24
17
2
21
7
22
4
6
22
2
27
5
28
22
23
5
1
6
16
2
26
1
12
2
11
1
20
7
11
21
22
23
19
22
24
25
11
4
4
13
8
28
2
13
3
13
4
22
13
6
3
14
31
22
4
6
4
13
26
8
2
1
12
12
18
28
6
11
13
12
14
4
11
28
1
20
26
5
15
2
18
2
1
13
1
22
15
1